start_domain = 1;
target_domain = 15;
vnflist_size = 5;
vnflist = [10,2,1,2,10];
vnf_arcs = [|1,2|2,3|2,4|4,5|];
proximity_to_source = [0,1,0,0,0];
proximity_to_destination = [0,0,0,1,0];
n_domain_constraints = 1;
domain_constraints = [|17,1,1,1|];
